<number of tasks>
50

<cycle time>
1000

<order strength>
0.596


<task times>
1 587
2 490
3 461
4 316
5 297
6 498
7 530
8 562
9 473
10 522
11 336
12 547
13 553
14 401
15 375
16 433
17 420
18 694
19 638
20 302
21 312
22 400
23 511
24 442
25 436
26 441
27 586
28 464
29 532
30 659
31 628
32 558
33 769
34 626
35 531
36 205
37 677
38 388
39 280
40 399
41 646
42 496
43 555
44 429
45 625
46 510
47 379
48 688
49 484
50 454

<precedence relations>
1,5
2,7
3,6
3,8
3,9
3,10
4,9
4,10
5,13
6,11
7,13
8,12
9,13
9,14
10,13
10,14
11,15
12,17
13,16
13,19
13,20
13,21
14,18
14,19
14,20
14,21
15,24
16,22
17,24
18,23
19,24
19,25
20,24
20,25
21,24
21,49
22,26
23,26
24,30
24,46
25,26
25,27
26,28
26,29
26,30
26,31
27,29
27,30
27,31
28,32
29,34
30,35
30,36
31,33
31,34
31,35
32,37
33,38
33,39
33,40
33,41
34,46
35,41
36,39
36,45
36,50
37,45
38,42
39,43
40,44
40,46
42,49
43,47
44,48
46,50

<end>
